51845.0
13, 15, 65, 136, 140, 168, 185, 302, 492, 505, 518, 586, 653, 781, 851, 906, 1013, 1094, 1105, 1135, 1175, 1201, 1342, 1435, 1442, 1644, 1650, 1698, 1743, 1874, 1916, 2077, 2271, 2404, 2511, 2516, 2545, 2620, 2749, 2896, 2958, 2967, 3116, 3267, 3370, 3555, 3636, 3717, 3898, 4070, 4088, 4130, 4236, 4240, 4458, 4542, 4574, 4655, 4917, 5307, 5345, 5367, 5446, 5535, 5537, 5725, 5946, 6062, 6096, 6116, 6186, 6307, 6332, 6474, 6534, 6617, 6690, 6693, 6808, 6822, 6932, 7010, 7127, 7176, 7223, 7690, 7735, 7789, 7888, 7959, 7965, 8082, 8211, 8481, 8498, 8727, 8775, 8924, 9037, 9094, 9185, 9241, 9254, 9371, 9377, 9399, 9464, 9518, 9834, 9994